min: j1+j2+j3+j4+j5+j6; /* Somme des Ci */

/* Borne max = Somme des durées opératoires */
// M = 78;

/* Durée opératoires */
p0 = 4;
p1 = 2;
p2 = 7;
p3 = 1;
p4 = 8;
p5 = 6;
p6 = 12;
p7 = 3;
p8 = 9;
p9 = 7;
p10 = 3;
p11 = 4;
p12 = 1;
p13 = 11;

/* Contraintes de précédence sur les taches d'un même job */

x01 + x10 = 1;
C0 + 78 * x01 - 78 <= C1 - p1;
C1 + 78 * x10 - 78 <= C0 - p0;
x02 + x20 = 1;
C0 + 78 * x02 - 78 <= C2 - p2;
C2 + 78 * x20 - 78 <= C0 - p0;
x12 + x21 = 1;
C1 + 78 * x12 - 78 <= C2 - p2;
C2 + 78 * x21 - 78 <= C1 - p1;
x34 + x43 = 1;
C3 + 78 * x34 - 78 <= C4 - p4;
C4 + 78 * x43 - 78 <= C3 - p3;
x45 + x54 = 1;
C4 + 78 * x45 - 78 <= C5 - p5;
C5 + 78 * x54 - 78 <= C4 - p4;
x35 + x53 = 1;
C3 + 78 * x35 - 78 <= C5 - p5;
C5 + 78 * x53 - 78 <= C3 - p3;
x78 + x87 = 1;
C7 + 78 * x78 - 78 <= C8 - p8;
C8 + 78 * x87 - 78 <= C7 - p7;
x910 + x109 = 1;
C9 + 78 * x910 - 78 <= C10 - p10;
C10 + 78 * x109 - 78 <= C9 - p9;
x1112 + x1211 = 1;
C11 + 78 * x1112 - 78 <= C12 - p12;
C12 + 78 * x1211 - 78 <= C11 - p11;
x1113 + x1311 = 1;
C11 + 78 * x1113 - 78 <= C13 - p13;
C13 + 78 * x1311 - 78 <= C11 - p11;
x1213 + x1312 = 1;
C12 + 78 * x1213 - 78 <= C13 - p13;
C13 + 78 * x1312 - 78 <= C12 - p12;

/* Contraintes de précédence sur les taches d'une même machine */

x03 + x30 = 1;
C0 + 78 * x03 - 78 <= C3 - p3;
C3 + 78 * x30 - 78 <= C0 - p0;
x06 + x60 = 1;
C0 + 78 * x06 - 78 <= C6 - p6;
C6 + 78 * x60 - 78 <= C0 - p0;
x07 + x70 = 1;
C0 + 78 * x07 - 78 <= C7 - p7;
C7 + 78 * x70 - 78 <= C0 - p0;
x011 + x110 = 1;
C0 + 78 * x011 - 78 <= C11 - p11;
C11 + 78 * x110 - 78 <= C0 - p0;
x36 + x63 = 1;
C3 + 78 * x36 - 78 <= C6 - p6;
C6 + 78 * x63 - 78 <= C3 - p3;
x37 + x73 = 1;
C3 + 78 * x37 - 78 <= C7 - p7;
C7 + 78 * x73 - 78 <= C3 - p3;
x311 + x113 = 1;
C3 + 78 * x311 - 78 <= C11 - p11;
C11 + 78 * x113 - 78 <= C3 - p3;
x67 + x76 = 1;
C6 + 78 * x67 - 78 <= C7 - p7;
C7 + 78 * x76 - 78 <= C6 - p6;
x611 + x116 = 1;
C6 + 78 * x611 - 78 <= C11 - p11;
C11 + 78 * x116 - 78 <= C6 - p6;
x711 + x117 = 1;
C7 + 78 * x711 - 78 <= C11 - p11;
C11 + 78 * x117 - 78 <= C7 - p7;
x14 + x41 = 1;
C1 + 78 * x14 - 78 <= C4 - p4;
C4 + 78 * x41 - 78 <= C1 - p1;
x18 + x81 = 1;
C1 + 78 * x18 - 78 <= C8 - p8;
C8 + 78 * x81 - 78 <= C1 - p1;
x19 + x91 = 1;
C1 + 78 * x19 - 78 <= C9 - p9;
C9 + 78 * x91 - 78 <= C1 - p1;
x112 + x121 = 1;
C1 + 78 * x112 - 78 <= C12 - p12;
C12 + 78 * x121 - 78 <= C1 - p1;
x48 + x84 = 1;
C4 + 78 * x48 - 78 <= C8 - p8;
C8 + 78 * x84 - 78 <= C4 - p4;
x49 + x94 = 1;
C4 + 78 * x49 - 78 <= C9 - p9;
C9 + 78 * x94 - 78 <= C4 - p4;
x412 + x124 = 1;
C4 + 78 * x412 - 78 <= C12 - p12;
C12 + 78 * x124 - 78 <= C4 - p4;
x89 + x98 = 1;
C8 + 78 * x89 - 78 <= C9 - p9;
C9 + 78 * x98 - 78 <= C8 - p8;
x812 + x128 = 1;
C8 + 78 * x812 - 78 <= C12 - p12;
C12 + 78 * x128 - 78 <= C8 - p8;
x912 + x129 = 1;
C9 + 78 * x912 - 78 <= C12 - p12;
C12 + 78 * x129 - 78 <= C9 - p9;
x25 + x52 = 1;
C2 + 78 * x25 - 78 <= C5 - p5;
C5 + 78 * x52 - 78 <= C2 - p2;
x210 + x102 = 1;
C2 + 78 * x210 - 78 <= C10 - p10;
C10 + 78 * x102 - 78 <= C2 - p2;
x213 + x132 = 1;
C2 + 78 * x213 - 78 <= C13 - p13;
C13 + 78 * x132 - 78 <= C2 - p2;
x510 + x105 = 1;
C5 + 78 * x510 - 78 <= C10 - p10;
C10 + 78 * x105 - 78 <= C5 - p5;
x513 + x135 = 1;
C5 + 78 * x513 - 78 <= C13 - p13;
C13 + 78 * x135 - 78 <= C5 - p5;
x1013 + x1310 = 1;
C10 + 78 * x1013 - 78 <= C13 - p13;
C13 + 78 * x1310 - 78 <= C10 - p10;


/* Contraintes temporelles */

C0 >= p0;
C1 >= p1;
C2 >= p2;
C3 >= p3;
C4 >= p4;
C5 >= p5;
C6 >= p6;
C7 >= p7;
C8 >= p8;
C9 >= p9;
C10 >= p10;
C11 >= p11;
C12 >= p12;
C13 >= p13;

C0 <= j1;
C1 <= j1;
C2 <= j1;
C3 <= j2;
C4 <= j2;
C5 <= j2;
C6 <= j3;
C7 <= j4;
C8 <= j4;
C9 <= j5;
C10 <= j5;
C11 <= j6;
C12 <= j6;
C13 <= j6;

j1 >=0 ;
j2 >=0 ;
j3 >=0 ;
j4 >=0 ;
j5 >=0 ;
j6 >=0 ;

bin x01, x10, x02, x20, x12, x21, x34, x43, x45, x54, x35, x53, x78, x87, x910, x109, x1112, x1211, x1113, x1311, x1213, x1312, x03, x30, x06, x60, x07, x70, x011, x110, x36, x63, x37, x73, x311, x113, x67, x76, x611, x116, x711, x117, x14, x41, x18, x81, x19, x91, x112, x121, x48, x84, x49, x94, x412, x124x89, x98, x812, x128, x912, x129, x25, x52, x210, x102, x213, x132, x510, x105, x513, x135, x1013, x1310;